HFSDDW
15	4	2
0	25	1	42
0	59	1	68
0	11	1	54
0	76	1	44
0	37	1	34
0	29	1	44
0	60	1	66
0	28	1	9
0	58	1	64
0	15	1	65
0	47	1	92
0	70	1	85
0	28	1	74
0	47	1	12
0	47	1	22
LBCmax: 401
RELDUE
-1	253	9	1
-1	172	4	8
-1	397	1	5
-1	56	6	7
-1	214	2	3
-1	419	3	7
-1	341	7	4
-1	344	4	1
-1	163	6	9
-1	238	2	8
-1	257	9	5
-1	112	5	3
-1	88	4	4
-1	429	8	3
-1	77	6	2
DDW
238	268
143	201
337	457
47	65
197	231
356	482
331	351
327	361
148	178
202	274
208	306
97	127
76	100
365	493
75	79
